;; ===================== PROJECTED CANON (QE) =====================
;; Each clause below is entailed by Proj = ∃W.F over the canonical vocabulary.
;; Units appear first for clarity; OR-clauses (SAT-filtered) follow.
;; ==================================================================

;; Unit Bool constraints (entailed)
(assert patient_has_finding_of_chronic_obstructive_lung_disease_now)
(assert patient_is_taking_corticosteroid_and_corticosteroid_derivative_containing_product_inthepast6months)
(assert patient_is_exposed_to_muscarinic_receptor_antagonist_inthepast6months)
(assert patient_is_exposed_to_selective_beta_2_agonist_inthepast6months)
